c ind 1 2 3 4 5 6 7 8 9 10 11 12 13 14 15 16 17 18 19 20 21 22 23 24 25 26 27 28 29 30 31 32 33 34 35 36 37 38 39 40 41 42 43 44 45 0
p cnf 599 1082              
-33 7 -212 0
212 -214 0
-34 8 -213 0
213 -214 0
214 -251 0
-34 -33 -215 0
215 -217 0
33 34 -216 0
216 -217 0
217 -251 0
-35 7 -218 0
218 -220 0
-36 8 -219 0
219 -220 0
220 -251 0
-36 -35 -221 0
221 -223 0
35 36 -222 0
222 -223 0
223 -251 0
-37 1 -224 0
224 -227 0
-38 2 -225 0
225 -227 0
-39 3 -226 0
226 -227 0
227 -251 0
-38 -37 -228 0
228 -232 0
-37 229 0
-38 229 0
37 38 -229 0
-229 -39 -230 0
230 -232 0
39 229 -231 0
231 -232 0
232 -251 0
-40 4 -233 0
233 -236 0
-41 5 -234 0
234 -236 0
-42 6 -235 0
235 -236 0
236 -251 0
-41 -40 -237 0
237 -241 0
-40 238 0
-41 238 0
40 41 -238 0
-238 -42 -239 0
239 -241 0
42 238 -240 0
240 -241 0
241 -251 0
-43 4 -242 0
242 -245 0
-44 5 -243 0
243 -245 0
-45 6 -244 0
244 -245 0
245 -251 0
-44 -43 -246 0
246 -250 0
-43 247 0
-44 247 0
-247 -45 -248 0
248 -250 0
250 -251 0
251 389 0
15 -252 0
35 -252 0
-15 -35 252 0
-252 270 0
24 -261 0
36 -261 0
-24 -36 261 0
-261 270 0
252 261 -270 0
37 -306 0
40 -306 0
-37 -40 306 0
-306 317 0
15 -279 0
33 -279 0
-15 -33 279 0
-279 297 0
24 -288 0
34 -288 0
-24 -34 288 0
-288 297 0
279 288 -297 0
297 -316 0
37 -308 0
42 -308 0
-37 -42 308 0
-308 -315 0
37 -307 0
41 -307 0
-37 -41 307 0
-307 -315 0
-306 -315 0
308 307 306 315 0
315 -316 0
-297 -315 316 0
-316 317 0
306 316 -317 0
-270 317 -336 0
336 -345 0
16 -253 0
35 -253 0
-16 -35 253 0
-253 271 0
25 -262 0
36 -262 0
-25 -36 262 0
-262 271 0
253 262 -271 0
-307 319 0
16 -280 0
33 -280 0
-16 -33 280 0
-280 298 0
25 -289 0
34 -289 0
-25 -34 289 0
-289 298 0
280 289 -298 0
298 -318 0
315 -318 0
-298 -315 318 0
-318 319 0
307 318 -319 0
-271 319 -337 0
337 -345 0
17 -254 0
35 -254 0
-17 -35 254 0
-254 272 0
26 -263 0
36 -263 0
-26 -36 263 0
-263 272 0
254 263 -272 0
-308 321 0
17 -281 0
33 -281 0
-17 -33 281 0
-281 299 0
26 -290 0
34 -290 0
-26 -34 290 0
-290 299 0
281 290 -299 0
299 -320 0
315 -320 0
-299 -315 320 0
-320 321 0
308 320 -321 0
-272 321 -338 0
338 -345 0
18 -255 0
35 -255 0
-18 -35 255 0
-255 273 0
27 -264 0
36 -264 0
-27 -36 264 0
-264 273 0
255 264 -273 0
38 -309 0
40 -309 0
-38 -40 309 0
-309 324 0
18 -282 0
33 -282 0
-18 -33 282 0
-282 300 0
27 -291 0
34 -291 0
-27 -34 291 0
-291 300 0
282 291 -300 0
300 -323 0
38 -311 0
42 -311 0
-38 -42 311 0
-311 -322 0
38 -310 0
41 -310 0
-38 -41 310 0
-310 -322 0
-309 -322 0
311 310 309 322 0
322 -323 0
-300 -322 323 0
-323 324 0
309 323 -324 0
-273 324 -339 0
339 -345 0
19 -256 0
35 -256 0
-19 -35 256 0
-256 274 0
28 -265 0
36 -265 0
-28 -36 265 0
-265 274 0
256 265 -274 0
-310 326 0
19 -283 0
33 -283 0
-19 -33 283 0
-283 301 0
28 -292 0
34 -292 0
-28 -34 292 0
-292 301 0
283 292 -301 0
301 -325 0
322 -325 0
-301 -322 325 0
-325 326 0
310 325 -326 0
-274 326 -340 0
340 -345 0
20 -257 0
35 -257 0
-20 -35 257 0
-257 275 0
29 -266 0
36 -266 0
-29 -36 266 0
-266 275 0
257 266 -275 0
-311 328 0
20 -284 0
33 -284 0
-20 -33 284 0
-284 302 0
29 -293 0
34 -293 0
-29 -34 293 0
-293 302 0
284 293 -302 0
302 -327 0
322 -327 0
-302 -322 327 0
-327 328 0
311 327 -328 0
-275 328 -341 0
341 -345 0
21 -258 0
35 -258 0
-21 -35 258 0
-258 276 0
30 -267 0
36 -267 0
-30 -36 267 0
-267 276 0
258 267 -276 0
39 -312 0
40 -312 0
-39 -40 312 0
-312 331 0
21 -285 0
33 -285 0
-21 -33 285 0
-285 303 0
30 -294 0
34 -294 0
-30 -34 294 0
-294 303 0
285 294 -303 0
303 -330 0
39 -314 0
42 -314 0
-39 -42 314 0
-314 -329 0
39 -313 0
41 -313 0
-39 -41 313 0
-313 -329 0
-312 -329 0
314 313 312 329 0
329 -330 0
-303 -329 330 0
-330 331 0
312 330 -331 0
-276 331 -342 0
342 -345 0
22 -259 0
35 -259 0
-22 -35 259 0
-259 277 0
31 -268 0
36 -268 0
-31 -36 268 0
-268 277 0
259 268 -277 0
-313 333 0
22 -286 0
33 -286 0
-22 -33 286 0
-286 304 0
31 -295 0
34 -295 0
-31 -34 295 0
-295 304 0
286 295 -304 0
304 -332 0
329 -332 0
-304 -329 332 0
-332 333 0
313 332 -333 0
-277 333 -343 0
343 -345 0
23 -260 0
35 -260 0
-23 -35 260 0
-260 278 0
32 -269 0
36 -269 0
-32 -36 269 0
-269 278 0
260 269 -278 0
-314 335 0
23 -287 0
33 -287 0
-23 -33 287 0
-287 305 0
32 -296 0
34 -296 0
-32 -34 296 0
-296 305 0
287 296 -305 0
305 -334 0
329 -334 0
-305 -329 334 0
-334 335 0
314 334 -335 0
-278 335 -344 0
344 -345 0
345 -356 0
-317 270 -346 0
346 -355 0
-319 271 -347 0
347 -355 0
-321 272 -348 0
348 -355 0
-324 273 -349 0
349 -355 0
-326 274 -350 0
350 -355 0
-328 275 -351 0
351 -355 0
-331 276 -352 0
352 -355 0
-333 277 -353 0
353 -355 0
-335 278 -354 0
354 -355 0
355 -356 0
356 -378 0
37 -357 0
270 -357 0
-37 -270 357 0
-357 366 0
38 -360 0
273 -360 0
-38 -273 360 0
-360 366 0
39 -363 0
276 -363 0
-39 -276 363 0
-363 366 0
357 360 363 -366 0
-43 366 -369 0
369 -372 0
37 -358 0
271 -358 0
-37 -271 358 0
-358 367 0
38 -361 0
274 -361 0
-38 -274 361 0
-361 367 0
39 -364 0
277 -364 0
-39 -277 364 0
-364 367 0
358 361 364 -367 0
-44 367 -370 0
370 -372 0
37 -359 0
272 -359 0
-37 -272 359 0
-359 368 0
38 -362 0
275 -362 0
-38 -275 362 0
-362 368 0
39 -365 0
278 -365 0
-39 -278 365 0
-365 368 0
359 362 365 -368 0
-45 368 -371 0
371 -372 0
372 -377 0
-366 43 -373 0
373 -376 0
-367 44 -374 0
374 -376 0
-368 45 -375 0
375 -376 0
376 -377 0
377 -378 0
378 388 0
40 379 0
-43 379 0
41 380 0
-44 380 0
42 381 0
-45 381 0
-379 -380 -381 382 0
43 383 0
-40 383 0
44 384 0
-41 384 0
45 385 0
-42 385 0
-383 -384 -385 386 0
-382 -386 387 0
-387 388 0
-388 389 0
-389 -390 0
-9 1 -46 0
46 -49 0
-10 2 -47 0
47 -49 0
-11 3 -48 0
48 -49 0
-7 49 -50 0
50 -56 0
-12 1 -51 0
51 -54 0
-13 2 -52 0
52 -54 0
-14 3 -53 0
53 -54 0
-8 54 -55 0
55 -56 0
56 -390 0
-9 57 0
-10 57 0
-11 57 0
-57 7 -59 0
59 -61 0
-12 58 0
-13 58 0
-14 58 0
-58 8 -60 0
60 -61 0
61 -390 0
4 -62 0
9 -62 0
-15 62 -71 0
71 -80 0
5 -63 0
9 -63 0
-16 63 -72 0
72 -80 0
6 -64 0
9 -64 0
-17 64 -73 0
73 -80 0
4 -65 0
10 -65 0
-18 65 -74 0
74 -80 0
5 -66 0
10 -66 0
-19 66 -75 0
75 -80 0
6 -67 0
10 -67 0
-20 67 -76 0
76 -80 0
4 -68 0
11 -68 0
-21 68 -77 0
77 -80 0
5 -69 0
11 -69 0
-22 69 -78 0
78 -80 0
6 -70 0
11 -70 0
-23 70 -79 0
79 -80 0
80 -115 0
-16 -15 -81 0
81 -85 0
-15 82 0
-16 82 0
15 16 -82 0
-82 -17 -83 0
83 -85 0
-17 84 0
-82 84 0
17 82 -84 0
84 -85 0
85 -90 0
-15 4 -86 0
86 -89 0
-16 5 -87 0
87 -89 0
-17 6 -88 0
88 -89 0
89 -90 0
-9 90 -91 0
91 -114 0
-19 -18 -92 0
92 -96 0
-18 93 0
-19 93 0
18 19 -93 0
-93 -20 -94 0
94 -96 0
-20 95 0
-93 95 0
20 93 -95 0
95 -96 0
96 -101 0
-18 4 -97 0
97 -100 0
-19 5 -98 0
98 -100 0
-20 6 -99 0
99 -100 0
100 -101 0
-10 101 -102 0
102 -114 0
-22 -21 -103 0
103 -107 0
-21 104 0
-22 104 0
21 22 -104 0
-104 -23 -105 0
105 -107 0
-23 106 0
-104 106 0
23 104 -106 0
106 -107 0
107 -112 0
-21 4 -108 0
108 -111 0
-22 5 -109 0
109 -111 0
-23 6 -110 0
110 -111 0
111 -112 0
-11 112 -113 0
113 -114 0
114 -115 0
115 -132 0
-15 9 -116 0
116 -119 0
-18 10 -117 0
117 -119 0
-21 11 -118 0
118 -119 0
-4 119 -120 0
120 -131 0
-16 9 -121 0
121 -124 0
-19 10 -122 0
122 -124 0
-22 11 -123 0
123 -124 0
-5 124 -125 0
125 -131 0
-17 9 -126 0
126 -129 0
-20 10 -127 0
127 -129 0
-23 11 -128 0
128 -129 0
-6 129 -130 0
130 -131 0
131 -132 0
-7 132 -133 0
133 -206 0
4 -134 0
12 -134 0
-24 134 -143 0
143 -152 0
5 -135 0
12 -135 0
-25 135 -144 0
144 -152 0
6 -136 0
12 -136 0
-26 136 -145 0
145 -152 0
4 -137 0
13 -137 0
-27 137 -146 0
146 -152 0
5 -138 0
13 -138 0
-28 138 -147 0
147 -152 0
6 -139 0
13 -139 0
-29 139 -148 0
148 -152 0
4 -140 0
14 -140 0
-30 140 -149 0
149 -152 0
5 -141 0
14 -141 0
-31 141 -150 0
150 -152 0
6 -142 0
14 -142 0
-32 142 -151 0
151 -152 0
152 -187 0
-25 -24 -153 0
153 -157 0
-24 154 0
-25 154 0
24 25 -154 0
-154 -26 -155 0
155 -157 0
-26 156 0
-154 156 0
26 154 -156 0
156 -157 0
157 -162 0
-24 4 -158 0
158 -161 0
-25 5 -159 0
159 -161 0
-26 6 -160 0
160 -161 0
161 -162 0
-12 162 -163 0
163 -186 0
-28 -27 -164 0
164 -168 0
-27 165 0
-28 165 0
27 28 -165 0
-165 -29 -166 0
166 -168 0
-29 167 0
-165 167 0
29 165 -167 0
167 -168 0
168 -173 0
-27 4 -169 0
169 -172 0
-28 5 -170 0
170 -172 0
-29 6 -171 0
171 -172 0
172 -173 0
-13 173 -174 0
174 -186 0
-31 -30 -175 0
175 -179 0
-30 176 0
-31 176 0
30 31 -176 0
-176 -32 -177 0
177 -179 0
-32 178 0
-176 178 0
32 176 -178 0
178 -179 0
179 -184 0
-30 4 -180 0
180 -183 0
-31 5 -181 0
181 -183 0
-32 6 -182 0
182 -183 0
183 -184 0
-14 184 -185 0
185 -186 0
186 -187 0
187 -204 0
-24 12 -188 0
188 -191 0
-27 13 -189 0
189 -191 0
-30 14 -190 0
190 -191 0
-4 191 -192 0
192 -203 0
-25 12 -193 0
193 -196 0
-28 13 -194 0
194 -196 0
-31 14 -195 0
195 -196 0
-5 196 -197 0
197 -203 0
-26 12 -198 0
198 -201 0
-29 13 -199 0
199 -201 0
-32 14 -200 0
200 -201 0
-6 201 -202 0
202 -203 0
203 -204 0
-8 204 -205 0
205 -206 0
206 -390 0
-84 207 0
-95 207 0
-106 207 0
-207 7 -209 0
209 -211 0
-156 208 0
-167 208 0
-178 208 0
-208 8 -210 0
210 -211 0
211 -390 0
-40 41 -391 0
391 -425 0
-40 -41 392 0
40 41 392 0
-41 41 392 0
-43 44 -393 0
-392 393 -394 0
394 -425 0
-43 -44 395 0
43 44 395 0
-44 44 395 0
-392 -395 396 0
-4 5 -397 0
-396 397 -398 0
398 -425 0
-4 -5 399 0
4 5 399 0
-5 5 399 0
-396 -399 400 0
-15 16 -401 0
-400 401 -402 0
402 -425 0
-15 -16 403 0
15 16 403 0
-16 16 403 0
-400 -403 404 0
-18 19 -405 0
-404 405 -406 0
406 -425 0
-18 -19 407 0
18 19 407 0
-19 19 407 0
-404 -407 408 0
-21 22 -409 0
-408 409 -410 0
410 -425 0
-21 -22 411 0
21 22 411 0
-22 22 411 0
-408 -411 412 0
-24 25 -413 0
-412 413 -414 0
414 -425 0
-24 -25 415 0
24 25 415 0
-25 25 415 0
-412 -415 416 0
-27 28 -417 0
-416 417 -418 0
418 -425 0
-27 -28 419 0
27 28 419 0
-28 28 419 0
-416 -419 420 0
-30 31 -421 0
-420 421 -422 0
422 -425 0
425 -598 0
-41 42 -426 0
426 -460 0
-41 -42 427 0
41 42 427 0
-42 42 427 0
-44 45 -428 0
-427 428 -429 0
429 -460 0
-44 -45 430 0
44 45 430 0
-45 45 430 0
-427 -430 431 0
-5 6 -432 0
-431 432 -433 0
433 -460 0
-5 -6 434 0
5 6 434 0
-6 6 434 0
-431 -434 435 0
-16 17 -436 0
-435 436 -437 0
437 -460 0
-16 -17 438 0
16 17 438 0
-17 17 438 0
-435 -438 439 0
-19 20 -440 0
-439 440 -441 0
441 -460 0
-19 -20 442 0
19 20 442 0
-20 20 442 0
-439 -442 443 0
-22 23 -444 0
-443 444 -445 0
445 -460 0
-22 -23 446 0
22 23 446 0
-23 23 446 0
-443 -446 447 0
-25 26 -448 0
-447 448 -449 0
449 -460 0
-25 -26 450 0
25 26 450 0
-26 26 450 0
-447 -450 451 0
-28 29 -452 0
-451 452 -453 0
453 -460 0
-28 -29 454 0
28 29 454 0
-29 29 454 0
-451 -454 455 0
-31 32 -456 0
-455 456 -457 0
457 -460 0
460 -598 0
-37 38 -461 0
461 -499 0
-37 -38 462 0
37 38 462 0
-38 38 462 0
-1 2 -463 0
-462 463 -464 0
464 -499 0
-1 -2 465 0
1 2 465 0
-2 2 465 0
-462 -465 466 0
-9 10 -467 0
-466 467 -468 0
468 -499 0
-9 -10 469 0
9 10 469 0
-10 10 469 0
-466 -469 470 0
-12 13 -471 0
-470 471 -472 0
472 -499 0
-12 -13 473 0
12 13 473 0
-13 13 473 0
-470 -473 474 0
-15 18 -475 0
-474 475 -476 0
476 -499 0
-15 -18 477 0
15 18 477 0
-18 18 477 0
-474 -477 478 0
-16 19 -479 0
-478 479 -480 0
480 -499 0
-16 -19 481 0
16 19 481 0
-19 19 481 0
-478 -481 482 0
-17 20 -483 0
-482 483 -484 0
484 -499 0
-17 -20 485 0
17 20 485 0
-20 20 485 0
-482 -485 486 0
-24 27 -487 0
-486 487 -488 0
488 -499 0
-24 -27 489 0
24 27 489 0
-27 27 489 0
-486 -489 490 0
-25 28 -491 0
-490 491 -492 0
492 -499 0
-25 -28 493 0
25 28 493 0
-28 28 493 0
-490 -493 494 0
-26 29 -495 0
-494 495 -496 0
496 -499 0
499 -598 0
-38 39 -500 0
500 -538 0
-38 -39 501 0
38 39 501 0
-39 39 501 0
-2 3 -502 0
-501 502 -503 0
503 -538 0
-2 -3 504 0
2 3 504 0
-3 3 504 0
-501 -504 505 0
-10 11 -506 0
-505 506 -507 0
507 -538 0
-10 -11 508 0
10 11 508 0
-11 11 508 0
-505 -508 509 0
-13 14 -510 0
-509 510 -511 0
511 -538 0
-13 -14 512 0
13 14 512 0
-14 14 512 0
-509 -512 513 0
-18 21 -514 0
-513 514 -515 0
515 -538 0
-18 -21 516 0
18 21 516 0
-21 21 516 0
-513 -516 517 0
-19 22 -518 0
-517 518 -519 0
519 -538 0
-19 -22 520 0
19 22 520 0
-22 22 520 0
-517 -520 521 0
-20 23 -522 0
-521 522 -523 0
523 -538 0
-20 -23 524 0
20 23 524 0
-23 23 524 0
-521 -524 525 0
-27 30 -526 0
-525 526 -527 0
527 -538 0
-27 -30 528 0
27 30 528 0
-30 30 528 0
-525 -528 529 0
-28 31 -530 0
-529 530 -531 0
531 -538 0
-28 -31 532 0
28 31 532 0
-31 31 532 0
-529 -532 533 0
-29 32 -534 0
-533 534 -535 0
535 -538 0
538 -598 0
-33 34 -539 0
539 -597 0
-33 -34 540 0
33 34 540 0
-34 34 540 0
-35 36 -541 0
-540 541 -542 0
542 -597 0
-35 -36 543 0
35 36 543 0
-36 36 543 0
-540 -543 544 0
-7 8 -545 0
-544 545 -546 0
546 -597 0
-7 -8 547 0
7 8 547 0
-8 8 547 0
-544 -547 548 0
-9 12 -549 0
-548 549 -550 0
550 -597 0
-9 -12 551 0
9 12 551 0
-12 12 551 0
-548 -551 552 0
-10 13 -553 0
-552 553 -554 0
554 -597 0
-10 -13 555 0
10 13 555 0
-13 13 555 0
-552 -555 556 0
-11 14 -557 0
-556 557 -558 0
558 -597 0
-11 -14 559 0
11 14 559 0
-14 14 559 0
-556 -559 560 0
-15 24 -561 0
-560 561 -562 0
562 -597 0
-15 -24 563 0
15 24 563 0
-24 24 563 0
-560 -563 564 0
-16 25 -565 0
-564 565 -566 0
566 -597 0
-16 -25 567 0
16 25 567 0
-25 25 567 0
-564 -567 568 0
-17 26 -569 0
-568 569 -570 0
570 -597 0
-17 -26 571 0
17 26 571 0
-26 26 571 0
-568 -571 572 0
-18 27 -573 0
-572 573 -574 0
574 -597 0
-18 -27 575 0
18 27 575 0
-27 27 575 0
-572 -575 576 0
-19 28 -577 0
-576 577 -578 0
578 -597 0
-19 -28 579 0
19 28 579 0
-28 28 579 0
-576 -579 580 0
-20 29 -581 0
-580 581 -582 0
582 -597 0
-20 -29 583 0
20 29 583 0
-29 29 583 0
-580 -583 584 0
-21 30 -585 0
-584 585 -586 0
586 -597 0
-21 -30 587 0
21 30 587 0
-30 30 587 0
-584 -587 588 0
-22 31 -589 0
-588 589 -590 0
590 -597 0
-22 -31 591 0
22 31 591 0
-31 31 591 0
-588 -591 592 0
-23 32 -593 0
-592 593 -594 0
594 -597 0
597 -598 0
390 0
598 0
